Traveling Salesman Problem/TSP_generados/Aleatorio1620391086_13.tsp
NAME: Aleatorio1620391086_13.tsp
COMMENT: Randomly generated scenario
TYPE: TSP
DIMENSION: 13
EDGE_WEIGHT_TYPE: ATT
NODE_COORD_SECTION
1 12.49 41.36
2 44.38 7.2
3 32.3 36.45
4 42.09 2.81
5 26.53 28.25
6 41.12 4.56
7 18.68 4.13
8 41.42 22.56
9 40.41 16.55
10 6.71 12.83
11 24.24 31.81
12 38.64 37.57
13 22.88 16.76
