Traveling Salesman Problem/TSP_generados/Aleatorio1620391086_13.opt.tour
NAME: Aleatorio1620391086_13.opt.tour
COMMENT: Optimal solution for Aleatorio1620391086_13 (150.63003903112784)
TYPE: TOUR
DIMENSION: 13
TOUR_SECTION
1 11 5 13 10 7 6 4 2 9 8 12 3
-1
EOF
